10
2147483647 76 1 70 16 36 51 56 83 1 
76 2147483647 3 80 67 47 76 42 71 78 
1 3 2147483647 53 38 43 54 19 61 61 
70 80 53 2147483647 9 84 24 89 89 15 
16 67 38 9 2147483647 14 11 23 77 97 
36 47 43 84 14 2147483647 44 17 35 61 
51 76 54 24 11 44 2147483647 3 53 43 
56 42 19 89 23 17 3 2147483647 83 71 
83 71 61 89 77 35 53 83 2147483647 45 
1 78 61 15 97 61 43 71 45 2147483647 
